Timesteps: 1
s UNSATISFIABLE
real 0.35
user 0.04
sys 0.01
Timesteps: 2
s UNSATISFIABLE
real 0.39
user 0.09
sys 0.02
Timesteps: 3
s UNSATISFIABLE
real 0.33
user 0.12
sys 0.01
Timesteps: 4
s UNSATISFIABLE
real 0.57
user 0.36
sys 0.02
Timesteps: 5
s UNSATISFIABLE
real 0.78
user 0.52
sys 0.02
Timesteps: 6
s UNSATISFIABLE
real 1.72
user 1.35
sys 0.04
Timesteps: 7
s UNSATISFIABLE
real 3.16
user 2.82
sys 0.03
Timesteps: 8
s UNSATISFIABLE
real 8.33
user 7.37
sys 0.06
Timesteps: 9
s UNSATISFIABLE
real 13.97
user 12.84
sys 0.07
Timesteps: 10
s UNSATISFIABLE
real 23.35
user 22.01
sys 0.08
Timesteps: 11
s UNSATISFIABLE
real 21.53
user 20.12
sys 0.08
Timesteps: 12
s UNSATISFIABLE
real 29.87
user 28.29
sys 0.09
Timesteps: 13
s UNSATISFIABLE
real 23.76
user 22.13
sys 0.10
Timesteps: 14
s UNSATISFIABLE
real 27.92
user 26.19
sys 0.12
Timesteps: 15
s UNSATISFIABLE
real 28.31
user 27.36
sys 0.11
Timesteps: 16
s UNSATISFIABLE
real 30.66
user 29.20
sys 0.13
Timesteps: 17
s UNSATISFIABLE
real 40.07
user 38.98
sys 0.16
Timesteps: 18
s UNSATISFIABLE
real 51.28
user 50.08
sys 0.20
Timesteps: 19
s UNSATISFIABLE
real 95.78
user 94.37
sys 0.21
Timesteps: 20
s UNSATISFIABLE
real 231.23
user 229.10
sys 0.33
Timesteps: 21
s UNSATISFIABLE
real 1019.90
user 1014.20
sys 0.71
Timesteps: 22
